Route #1: 26 67 42 86 53 154 170 181 43 41 38 111 60
Route #2: 129 12 74 128 82 97 102 151 122 139 39 91 45 175 108
Route #3: 171 85 173 126 49 140 33 119 8 143 153 166 158 14
Route #4: 5 162 168 29 150 106 81 75 78 134 83 51 136 95
Route #5: 13 176 58 155 68 172 28 93 30 182 183 9 159 69 107 2
Route #6: 145 87 101 96 174 178 113 1 90 7 31 15 37 22 88 124
Route #7: 77 184 71 99 84 27 89 98 66 20 112 54 94 11 180 135 35 19 16
Route #8: 47 123 120 125 137 169 146 76 46 57 62 56 167 141 127 59 152
Route #9: 130 185 131 10 6 133 160 25 109 105 23 32 144 163 103 116 18 40 121 72
Route #10: 114 142 156 79 161 3 149 110 80 17 157 61 36 118 115 100 52 164
Route #11: 73 117 132 34 165 148 63 70 179 48 55 147 21 138 44 92 50 65 64 177 104 4 24
Cost 19828.000000